32      4       
14      14      20      12      
0       0       0       0       0       8       2       25      26      27      28      29      30      31      
3       1       1       1       6       1       3       
10      1       11      14      6       2       24      4       
4       1       8       1       1       3       23      22      5       
9       1       1       2       1       1       6       
2       1       1       2       2       2       21      7       
7       3       3       1       6       3       20      19      8       
6       7       1       10      1       2       18      9       
3       4       6       1       1       2       17      10      
6       1       5       3       6       1       11      
2       7       7       8       1       1       12      
1       9       1       7       1       1       13      
1       1       1       1       2       1       14      
6       1       6       1       1       1       15      
1       6       5       1       1       1       16      
10      6       6       8       8       1       32      
10      10      1       8       7       1       32      
7       6       1       1       1       1       32      
8       6       1       4       1       1       32      
7       1       2       4       5       1       32      
8       1       1       17      3       1       32      
9       1       4       1       5       1       32      
4       2       1       6       1       1       32      
10      4       1       1       1       1       32      
4       1       1       4       5       1       32      
9       1       1       7       2       1       32      
3       1       10      7       6       1       32      
8       10      1       13      1       1       32      
5       1       3       1       3       1       32      
2       6       1       4       4       1       32      
6       4       13      11      1       1       32      
0       0       0       0       0       0       
